certificates/rado_a5_c116_N23.cnf
c Rad2 upper bound instance: x1 + 5*x2 - x3 = 116, interval [1,23]
p cnf 23 120
1 2 23 0
-1 -2 -23 0
2 3 23 0
-2 -3 -23 0
3 4 23 0
-3 -4 -23 0
4 5 23 0
-4 -5 -23 0
5 6 23 0
-5 -6 -23 0
1 7 22 0
-1 -7 -22 0
6 7 23 0
-6 -7 -23 0
2 8 22 0
-2 -8 -22 0
7 8 23 0
-7 -8 -23 0
3 9 22 0
-3 -9 -22 0
8 9 23 0
-8 -9 -23 0
4 10 22 0
-4 -10 -22 0
9 10 23 0
-9 -10 -23 0
5 11 22 0
-5 -11 -22 0
10 11 23 0
-10 -11 -23 0
1 12 21 0
-1 -12 -21 0
6 12 22 0
-6 -12 -22 0
11 12 23 0
-11 -12 -23 0
2 13 21 0
-2 -13 -21 0
7 13 22 0
-7 -13 -22 0
12 13 23 0
-12 -13 -23 0
3 14 21 0
-3 -14 -21 0
8 14 22 0
-8 -14 -22 0
13 14 23 0
-13 -14 -23 0
4 15 21 0
-4 -15 -21 0
9 15 22 0
-9 -15 -22 0
14 15 23 0
-14 -15 -23 0
5 16 21 0
-5 -16 -21 0
10 16 22 0
-10 -16 -22 0
15 16 23 0
-15 -16 -23 0
1 17 20 0
-1 -17 -20 0
6 17 21 0
-6 -17 -21 0
11 17 22 0
-11 -17 -22 0
16 17 23 0
-16 -17 -23 0
2 18 20 0
-2 -18 -20 0
7 18 21 0
-7 -18 -21 0
12 18 22 0
-12 -18 -22 0
17 18 23 0
-17 -18 -23 0
3 19 20 0
-3 -19 -20 0
8 19 21 0
-8 -19 -21 0
13 19 22 0
-13 -19 -22 0
18 19 23 0
-18 -19 -23 0
4 20 0
-4 -20 0
9 20 21 0
-9 -20 -21 0
14 20 22 0
-14 -20 -22 0
19 20 23 0
-19 -20 -23 0
5 20 21 0
-5 -20 -21 0
10 21 0
-10 -21 0
15 21 22 0
-15 -21 -22 0
20 21 23 0
-20 -21 -23 0
1 19 22 0
-1 -19 -22 0
6 20 22 0
-6 -20 -22 0
11 21 22 0
-11 -21 -22 0
16 22 0
-16 -22 0
21 22 23 0
-21 -22 -23 0
2 19 23 0
-2 -19 -23 0
7 20 23 0
-7 -20 -23 0
12 21 23 0
-12 -21 -23 0
17 22 23 0
-17 -22 -23 0
22 23 0
-22 -23 0
