certificates/rado_a5_c116_N23.drat
-23 0
22 0
-16 0
15 0
17 0
-9 0
-21 0
-11 0
8 0
10 0
20 0
12 0
5 0
-2 0
-14 0
-4 0
-6 0
-1 0
-18 0
0
